data/lp_files/q3/70_3.lp
\ Model foo
\ LP format - for model browsing. Use MPS format to capture full model detail.
Minimize
  z
Subject To
 allocateEach[1]: x[1,1] + x[2,1] + x[3,1] + x[4,1] = 1
 allocateEach[2]: x[1,2] + x[2,2] + x[3,2] + x[4,2] = 1
 allocateEach[3]: x[1,3] + x[2,3] + x[3,3] + x[4,3] = 1
 allocateEach[4]: x[1,4] + x[2,4] + x[3,4] + x[4,4] = 1
 allocateEach[5]: x[1,5] + x[2,5] + x[3,5] + x[4,5] = 1
 allocateEach[6]: x[1,6] + x[2,6] + x[3,6] + x[4,6] = 1
 allocateEach[7]: x[1,7] + x[2,7] + x[3,7] + x[4,7] = 1
 allocateEach[8]: x[1,8] + x[2,8] + x[3,8] + x[4,8] = 1
 allocateEach[9]: x[1,9] + x[2,9] + x[3,9] + x[4,9] = 1
 allocateEach[10]: x[1,10] + x[2,10] + x[3,10] + x[4,10] = 1
 allocateAllCash: cashProportion[1] + cashProportion[2] + cashProportion[3]
   + cashProportion[4] = 1
 findWorstP[1,2]: z + 0.0302311168886134 cashProportion[1]
   - 0.0302311168886134 cashProportion[2] + 0.0168085009900691 x[1,1]
   + 0.1325029853227928 x[1,2] + 0.1355109814532098 x[1,3]
   + 0.134981936907659 x[1,4] + 0.1095726831627794 x[1,5]
   + 0.1479208549359856 x[1,6] + 0.0151609051196396 x[1,7]
   + 0.1376120440769684 x[1,8] + 0.00581949 x[1,9]
   + 0.1338785011412247 x[1,10] - 0.0168085009900691 x[2,1]
   - 0.1325029853227928 x[2,2] - 0.1355109814532098 x[2,3]
   - 0.134981936907659 x[2,4] - 0.1095726831627794 x[2,5]
   - 0.1479208549359856 x[2,6] - 0.0151609051196396 x[2,7]
   - 0.1376120440769684 x[2,8] - 0.00581949 x[2,9]
   - 0.1338785011412247 x[2,10] >= 0
 findWorstP[1,3]: z + 0.0302311168886134 cashProportion[1]
   - 0.0302311168886134 cashProportion[3] + 0.0168085009900691 x[1,1]
   + 0.1325029853227928 x[1,2] + 0.1355109814532098 x[1,3]
   + 0.134981936907659 x[1,4] + 0.1095726831627794 x[1,5]
   + 0.1479208549359856 x[1,6] + 0.0151609051196396 x[1,7]
   + 0.1376120440769684 x[1,8] + 0.00581949 x[1,9]
   + 0.1338785011412247 x[1,10] - 0.0168085009900691 x[3,1]
   - 0.1325029853227928 x[3,2] - 0.1355109814532098 x[3,3]
   - 0.134981936907659 x[3,4] - 0.1095726831627794 x[3,5]
   - 0.1479208549359856 x[3,6] - 0.0151609051196396 x[3,7]
   - 0.1376120440769684 x[3,8] - 0.00581949 x[3,9]
   - 0.1338785011412247 x[3,10] >= 0
 findWorstP[1,4]: z + 0.0302311168886134 cashProportion[1]
   - 0.0302311168886134 cashProportion[4] + 0.0168085009900691 x[1,1]
   + 0.1325029853227928 x[1,2] + 0.1355109814532098 x[1,3]
   + 0.134981936907659 x[1,4] + 0.1095726831627794 x[1,5]
   + 0.1479208549359856 x[1,6] + 0.0151609051196396 x[1,7]
   + 0.1376120440769684 x[1,8] + 0.00581949 x[1,9]
   + 0.1338785011412247 x[1,10] - 0.0168085009900691 x[4,1]
   - 0.1325029853227928 x[4,2] - 0.1355109814532098 x[4,3]
   - 0.134981936907659 x[4,4] - 0.1095726831627794 x[4,5]
   - 0.1479208549359856 x[4,6] - 0.0151609051196396 x[4,7]
   - 0.1376120440769684 x[4,8] - 0.00581949 x[4,9]
   - 0.1338785011412247 x[4,10] >= 0
 findWorstP[2,1]: z - 0.0335199275969564 cashProportion[1]
   + 0.0335199275969564 cashProportion[2] - 0.0378775181845607 x[1,1]
   - 0.1454262058793953 x[1,2] - 0.1514262729192505 x[1,3]
   - 0.0196091576442195 x[1,4] - 0.1631079676867898 x[1,5]
   - 0.1088727248349144 x[1,6] - 0.0349612844836255 x[1,7]
   - 0.1432976904769886 x[1,8] - 0.1175543860825261 x[1,9]
   - 0.0443468642107733 x[1,10] + 0.0378775181845607 x[2,1]
   + 0.1454262058793953 x[2,2] + 0.1514262729192505 x[2,3]
   + 0.0196091576442195 x[2,4] + 0.1631079676867898 x[2,5]
   + 0.1088727248349144 x[2,6] + 0.0349612844836255 x[2,7]
   + 0.1432976904769886 x[2,8] + 0.1175543860825261 x[2,9]
   + 0.0443468642107733 x[2,10] >= 0
 findWorstP[2,3]: z + 0.0335199275969564 cashProportion[2]
   - 0.0335199275969564 cashProportion[3] + 0.0378775181845607 x[2,1]
   + 0.1454262058793953 x[2,2] + 0.1514262729192505 x[2,3]
   + 0.0196091576442195 x[2,4] + 0.1631079676867898 x[2,5]
   + 0.1088727248349144 x[2,6] + 0.0349612844836255 x[2,7]
   + 0.1432976904769886 x[2,8] + 0.1175543860825261 x[2,9]
   + 0.0443468642107733 x[2,10] - 0.0378775181845607 x[3,1]
   - 0.1454262058793953 x[3,2] - 0.1514262729192505 x[3,3]
   - 0.0196091576442195 x[3,4] - 0.1631079676867898 x[3,5]
   - 0.1088727248349144 x[3,6] - 0.0349612844836255 x[3,7]
   - 0.1432976904769886 x[3,8] - 0.1175543860825261 x[3,9]
   - 0.0443468642107733 x[3,10] >= 0
 findWorstP[2,4]: z + 0.0335199275969564 cashProportion[2]
   - 0.0335199275969564 cashProportion[4] + 0.0378775181845607 x[2,1]
   + 0.1454262058793953 x[2,2] + 0.1514262729192505 x[2,3]
   + 0.0196091576442195 x[2,4] + 0.1631079676867898 x[2,5]
   + 0.1088727248349144 x[2,6] + 0.0349612844836255 x[2,7]
   + 0.1432976904769886 x[2,8] + 0.1175543860825261 x[2,9]
   + 0.0443468642107733 x[2,10] - 0.0378775181845607 x[4,1]
   - 0.1454262058793953 x[4,2] - 0.1514262729192505 x[4,3]
   - 0.0196091576442195 x[4,4] - 0.1631079676867898 x[4,5]
   - 0.1088727248349144 x[4,6] - 0.0349612844836255 x[4,7]
   - 0.1432976904769886 x[4,8] - 0.1175543860825261 x[4,9]
   - 0.0443468642107733 x[4,10] >= 0
 findWorstP[3,1]: z - 0.0517544767622399 cashProportion[1]
   + 0.0517544767622399 cashProportion[3] - 0.0882413828796191 x[1,1]
   - 0.0477435048131663 x[1,2] - 0.2418745471483283 x[1,3]
   - 0.0725597764206604 x[1,4] - 0.1479142945864817 x[1,5]
   - 0.045078149259911 x[1,6] - 0.1674516095642273 x[1,7]
   - 0.0400838422523548 x[1,8] - 0.0283096987889452 x[1,9]
   - 0.0689887175240658 x[1,10] + 0.0882413828796191 x[3,1]
   + 0.0477435048131663 x[3,2] + 0.2418745471483283 x[3,3]
   + 0.0725597764206604 x[3,4] + 0.1479142945864817 x[3,5]
   + 0.045078149259911 x[3,6] + 0.1674516095642273 x[3,7]
   + 0.0400838422523548 x[3,8] + 0.0283096987889452 x[3,9]
   + 0.0689887175240658 x[3,10] >= 0
 findWorstP[3,2]: z - 0.0517544767622399 cashProportion[2]
   + 0.0517544767622399 cashProportion[3] - 0.0882413828796191 x[2,1]
   - 0.0477435048131663 x[2,2] - 0.2418745471483283 x[2,3]
   - 0.0725597764206604 x[2,4] - 0.1479142945864817 x[2,5]
   - 0.045078149259911 x[2,6] - 0.1674516095642273 x[2,7]
   - 0.0400838422523548 x[2,8] - 0.0283096987889452 x[2,9]
   - 0.0689887175240658 x[2,10] + 0.0882413828796191 x[3,1]
   + 0.0477435048131663 x[3,2] + 0.2418745471483283 x[3,3]
   + 0.0725597764206604 x[3,4] + 0.1479142945864817 x[3,5]
   + 0.045078149259911 x[3,6] + 0.1674516095642273 x[3,7]
   + 0.0400838422523548 x[3,8] + 0.0283096987889452 x[3,9]
   + 0.0689887175240658 x[3,10] >= 0
 findWorstP[3,4]: z + 0.0517544767622399 cashProportion[3]
   - 0.0517544767622399 cashProportion[4] + 0.0882413828796191 x[3,1]
   + 0.0477435048131663 x[3,2] + 0.2418745471483283 x[3,3]
   + 0.0725597764206604 x[3,4] + 0.1479142945864817 x[3,5]
   + 0.045078149259911 x[3,6] + 0.1674516095642273 x[3,7]
   + 0.0400838422523548 x[3,8] + 0.0283096987889452 x[3,9]
   + 0.0689887175240658 x[3,10] - 0.0882413828796191 x[4,1]
   - 0.0477435048131663 x[4,2] - 0.2418745471483283 x[4,3]
   - 0.0725597764206604 x[4,4] - 0.1479142945864817 x[4,5]
   - 0.045078149259911 x[4,6] - 0.1674516095642273 x[4,7]
   - 0.0400838422523548 x[4,8] - 0.0283096987889452 x[4,9]
   - 0.0689887175240658 x[4,10] >= 0
 findWorstP[4,1]: z - 0.0424142172456207 cashProportion[1]
   + 0.0424142172456207 cashProportion[4] - 0.1875980828773805 x[1,1]
   - 0.00472918522288671 x[1,2] - 0.0791237222717055 x[1,3]
   - 0.0243881749162319 x[1,4] - 0.0791449293803283 x[1,5]
   - 0.0765576621283454 x[1,6] - 0.1428298765746278 x[1,7]
   - 0.0810959833736268 x[1,8] - 0.1639097425457013 x[1,9]
   - 0.118208423463545 x[1,10] + 0.1875980828773805 x[4,1]
   + 0.00472918522288671 x[4,2] + 0.0791237222717055 x[4,3]
   + 0.0243881749162319 x[4,4] + 0.0791449293803283 x[4,5]
   + 0.0765576621283454 x[4,6] + 0.1428298765746278 x[4,7]
   + 0.0810959833736268 x[4,8] + 0.1639097425457013 x[4,9]
   + 0.118208423463545 x[4,10] >= 0
 findWorstP[4,2]: z - 0.0424142172456207 cashProportion[2]
   + 0.0424142172456207 cashProportion[4] - 0.1875980828773805 x[2,1]
   - 0.00472918522288671 x[2,2] - 0.0791237222717055 x[2,3]
   - 0.0243881749162319 x[2,4] - 0.0791449293803283 x[2,5]
   - 0.0765576621283454 x[2,6] - 0.1428298765746278 x[2,7]
   - 0.0810959833736268 x[2,8] - 0.1639097425457013 x[2,9]
   - 0.118208423463545 x[2,10] + 0.1875980828773805 x[4,1]
   + 0.00472918522288671 x[4,2] + 0.0791237222717055 x[4,3]
   + 0.0243881749162319 x[4,4] + 0.0791449293803283 x[4,5]
   + 0.0765576621283454 x[4,6] + 0.1428298765746278 x[4,7]
   + 0.0810959833736268 x[4,8] + 0.1639097425457013 x[4,9]
   + 0.118208423463545 x[4,10] >= 0
 findWorstP[4,3]: z - 0.0424142172456207 cashProportion[3]
   + 0.0424142172456207 cashProportion[4] - 0.1875980828773805 x[3,1]
   - 0.00472918522288671 x[3,2] - 0.0791237222717055 x[3,3]
   - 0.0243881749162319 x[3,4] - 0.0791449293803283 x[3,5]
   - 0.0765576621283454 x[3,6] - 0.1428298765746278 x[3,7]
   - 0.0810959833736268 x[3,8] - 0.1639097425457013 x[3,9]
   - 0.118208423463545 x[3,10] + 0.1875980828773805 x[4,1]
   + 0.00472918522288671 x[4,2] + 0.0791237222717055 x[4,3]
   + 0.0243881749162319 x[4,4] + 0.0791449293803283 x[4,5]
   + 0.0765576621283454 x[4,6] + 0.1428298765746278 x[4,7]
   + 0.0810959833736268 x[4,8] + 0.1639097425457013 x[4,9]
   + 0.118208423463545 x[4,10] >= 0
Bounds
 z <= 1
 -infinity <= cashProportion[1] <= 1
 -infinity <= cashProportion[2] <= 1
 -infinity <= cashProportion[3] <= 1
 -infinity <= cashProportion[4] <= 1
Binaries
 x[1,1] x[1,2] x[1,3] x[1,4] x[1,5] x[1,6] x[1,7] x[1,8] x[1,9] x[1,10]
 x[2,1] x[2,2] x[2,3] x[2,4] x[2,5] x[2,6] x[2,7] x[2,8] x[2,9] x[2,10]
 x[3,1] x[3,2] x[3,3] x[3,4] x[3,5] x[3,6] x[3,7] x[3,8] x[3,9] x[3,10]
 x[4,1] x[4,2] x[4,3] x[4,4] x[4,5] x[4,6] x[4,7] x[4,8] x[4,9] x[4,10]
End
