data/mps_files/q3/70_3.mps
NAME foo
ROWS
 N  OBJ
 E  allocateEach[1]
 E  allocateEach[2]
 E  allocateEach[3]
 E  allocateEach[4]
 E  allocateEach[5]
 E  allocateEach[6]
 E  allocateEach[7]
 E  allocateEach[8]
 E  allocateEach[9]
 E  allocateEach[10]
 E  allocateAllCash
 G  findWorstP[1,2]
 G  findWorstP[1,3]
 G  findWorstP[1,4]
 G  findWorstP[2,1]
 G  findWorstP[2,3]
 G  findWorstP[2,4]
 G  findWorstP[3,1]
 G  findWorstP[3,2]
 G  findWorstP[3,4]
 G  findWorstP[4,1]
 G  findWorstP[4,2]
 G  findWorstP[4,3]
COLUMNS
    z         OBJ       1
    z         findWorstP[1,2]  1
    z         findWorstP[1,3]  1
    z         findWorstP[1,4]  1
    z         findWorstP[2,1]  1
    z         findWorstP[2,3]  1
    z         findWorstP[2,4]  1
    z         findWorstP[3,1]  1
    z         findWorstP[3,2]  1
    z         findWorstP[3,4]  1
    z         findWorstP[4,1]  1
    z         findWorstP[4,2]  1
    z         findWorstP[4,3]  1
    cashProportion[1]  allocateAllCash  1
    cashProportion[1]  findWorstP[1,2]  3.0231116888613449e-02
    cashProportion[1]  findWorstP[1,3]  3.0231116888613449e-02
    cashProportion[1]  findWorstP[1,4]  3.0231116888613449e-02
    cashProportion[1]  findWorstP[2,1]  -3.3519927596956392e-02
    cashProportion[1]  findWorstP[3,1]  -5.1754476762239932e-02
    cashProportion[1]  findWorstP[4,1]  -4.2414217245620736e-02
    cashProportion[2]  allocateAllCash  1
    cashProportion[2]  findWorstP[1,2]  -3.0231116888613449e-02
    cashProportion[2]  findWorstP[2,1]  3.3519927596956392e-02
    cashProportion[2]  findWorstP[2,3]  3.3519927596956392e-02
    cashProportion[2]  findWorstP[2,4]  3.3519927596956392e-02
    cashProportion[2]  findWorstP[3,2]  -5.1754476762239932e-02
    cashProportion[2]  findWorstP[4,2]  -4.2414217245620736e-02
    cashProportion[3]  allocateAllCash  1
    cashProportion[3]  findWorstP[1,3]  -3.0231116888613449e-02
    cashProportion[3]  findWorstP[2,3]  -3.3519927596956392e-02
    cashProportion[3]  findWorstP[3,1]  5.1754476762239932e-02
    cashProportion[3]  findWorstP[3,2]  5.1754476762239932e-02
    cashProportion[3]  findWorstP[3,4]  5.1754476762239932e-02
    cashProportion[3]  findWorstP[4,3]  -4.2414217245620736e-02
    cashProportion[4]  allocateAllCash  1
    cashProportion[4]  findWorstP[1,4]  -3.0231116888613449e-02
    cashProportion[4]  findWorstP[2,4]  -3.3519927596956392e-02
    cashProportion[4]  findWorstP[3,4]  -5.1754476762239932e-02
    cashProportion[4]  findWorstP[4,1]  4.2414217245620736e-02
    cashProportion[4]  findWorstP[4,2]  4.2414217245620736e-02
    cashProportion[4]  findWorstP[4,3]  4.2414217245620736e-02
    MARKER    'MARKER'                 'INTORG'
    x[1,1]    allocateEach[1]  1
    x[1,1]    findWorstP[1,2]  1.6808500990069076e-02
    x[1,1]    findWorstP[1,3]  1.6808500990069076e-02
    x[1,1]    findWorstP[1,4]  1.6808500990069076e-02
    x[1,1]    findWorstP[2,1]  -3.7877518184560720e-02
    x[1,1]    findWorstP[3,1]  -8.8241382879619093e-02
    x[1,1]    findWorstP[4,1]  -1.8759808287738053e-01
    x[1,2]    allocateEach[2]  1
    x[1,2]    findWorstP[1,2]  1.3250298532279275e-01
    x[1,2]    findWorstP[1,3]  1.3250298532279275e-01
    x[1,2]    findWorstP[1,4]  1.3250298532279275e-01
    x[1,2]    findWorstP[2,1]  -1.4542620587939531e-01
    x[1,2]    findWorstP[3,1]  -4.7743504813166339e-02
    x[1,2]    findWorstP[4,1]  -4.7291852228867120e-03
    x[1,3]    allocateEach[3]  1
    x[1,3]    findWorstP[1,2]  1.3551098145320978e-01
    x[1,3]    findWorstP[1,3]  1.3551098145320978e-01
    x[1,3]    findWorstP[1,4]  1.3551098145320978e-01
    x[1,3]    findWorstP[2,1]  -1.5142627291925048e-01
    x[1,3]    findWorstP[3,1]  -2.4187454714832832e-01
    x[1,3]    findWorstP[4,1]  -7.9123722271705471e-02
    x[1,4]    allocateEach[4]  1
    x[1,4]    findWorstP[1,2]  1.3498193690765903e-01
    x[1,4]    findWorstP[1,3]  1.3498193690765903e-01
    x[1,4]    findWorstP[1,4]  1.3498193690765903e-01
    x[1,4]    findWorstP[2,1]  -1.9609157644219489e-02
    x[1,4]    findWorstP[3,1]  -7.2559776420660374e-02
    x[1,4]    findWorstP[4,1]  -2.4388174916231922e-02
    x[1,5]    allocateEach[5]  1
    x[1,5]    findWorstP[1,2]  1.0957268316277943e-01
    x[1,5]    findWorstP[1,3]  1.0957268316277943e-01
    x[1,5]    findWorstP[1,4]  1.0957268316277943e-01
    x[1,5]    findWorstP[2,1]  -1.6310796768678978e-01
    x[1,5]    findWorstP[3,1]  -1.4791429458648173e-01
    x[1,5]    findWorstP[4,1]  -7.9144929380328286e-02
    x[1,6]    allocateEach[6]  1
    x[1,6]    findWorstP[1,2]  1.4792085493598559e-01
    x[1,6]    findWorstP[1,3]  1.4792085493598559e-01
    x[1,6]    findWorstP[1,4]  1.4792085493598559e-01
    x[1,6]    findWorstP[2,1]  -1.0887272483491435e-01
    x[1,6]    findWorstP[3,1]  -4.5078149259910980e-02
    x[1,6]    findWorstP[4,1]  -7.6557662128345416e-02
    x[1,7]    allocateEach[7]  1
    x[1,7]    findWorstP[1,2]  1.5160905119639643e-02
    x[1,7]    findWorstP[1,3]  1.5160905119639643e-02
    x[1,7]    findWorstP[1,4]  1.5160905119639643e-02
    x[1,7]    findWorstP[2,1]  -3.4961284483625517e-02
    x[1,7]    findWorstP[3,1]  -1.6745160956422731e-01
    x[1,7]    findWorstP[4,1]  -1.4282987657462781e-01
    x[1,8]    allocateEach[8]  1
    x[1,8]    findWorstP[1,2]  1.3761204407696839e-01
    x[1,8]    findWorstP[1,3]  1.3761204407696839e-01
    x[1,8]    findWorstP[1,4]  1.3761204407696839e-01
    x[1,8]    findWorstP[2,1]  -1.4329769047698857e-01
    x[1,8]    findWorstP[3,1]  -4.0083842252354833e-02
    x[1,8]    findWorstP[4,1]  -8.1095983373626848e-02
    x[1,9]    allocateEach[9]  1
    x[1,9]    findWorstP[1,2]  5.8194900010580886e-03
    x[1,9]    findWorstP[1,3]  5.8194900010580886e-03
    x[1,9]    findWorstP[1,4]  5.8194900010580886e-03
    x[1,9]    findWorstP[2,1]  -1.1755438608252607e-01
    x[1,9]    findWorstP[3,1]  -2.8309698788945240e-02
    x[1,9]    findWorstP[4,1]  -1.6390974254570134e-01
    x[1,10]   allocateEach[10]  1
    x[1,10]   findWorstP[1,2]  1.3387850114122465e-01
    x[1,10]   findWorstP[1,3]  1.3387850114122465e-01
    x[1,10]   findWorstP[1,4]  1.3387850114122465e-01
    x[1,10]   findWorstP[2,1]  -0.0443468642107733
    x[1,10]   findWorstP[3,1]  -6.8988717524065823e-02
    x[1,10]   findWorstP[4,1]  -1.1820842346354499e-01
    x[2,1]    allocateEach[1]  1
    x[2,1]    findWorstP[1,2]  -1.6808500990069076e-02
    x[2,1]    findWorstP[2,1]  3.7877518184560720e-02
    x[2,1]    findWorstP[2,3]  3.7877518184560720e-02
    x[2,1]    findWorstP[2,4]  3.7877518184560720e-02
    x[2,1]    findWorstP[3,2]  -8.8241382879619093e-02
    x[2,1]    findWorstP[4,2]  -1.8759808287738053e-01
    x[2,2]    allocateEach[2]  1
    x[2,2]    findWorstP[1,2]  -1.3250298532279275e-01
    x[2,2]    findWorstP[2,1]  1.4542620587939531e-01
    x[2,2]    findWorstP[2,3]  1.4542620587939531e-01
    x[2,2]    findWorstP[2,4]  1.4542620587939531e-01
    x[2,2]    findWorstP[3,2]  -4.7743504813166339e-02
    x[2,2]    findWorstP[4,2]  -4.7291852228867120e-03
    x[2,3]    allocateEach[3]  1
    x[2,3]    findWorstP[1,2]  -1.3551098145320978e-01
    x[2,3]    findWorstP[2,1]  1.5142627291925048e-01
    x[2,3]    findWorstP[2,3]  1.5142627291925048e-01
    x[2,3]    findWorstP[2,4]  1.5142627291925048e-01
    x[2,3]    findWorstP[3,2]  -2.4187454714832832e-01
    x[2,3]    findWorstP[4,2]  -7.9123722271705471e-02
    x[2,4]    allocateEach[4]  1
    x[2,4]    findWorstP[1,2]  -1.3498193690765903e-01
    x[2,4]    findWorstP[2,1]  1.9609157644219489e-02
    x[2,4]    findWorstP[2,3]  1.9609157644219489e-02
    x[2,4]    findWorstP[2,4]  1.9609157644219489e-02
    x[2,4]    findWorstP[3,2]  -7.2559776420660374e-02
    x[2,4]    findWorstP[4,2]  -2.4388174916231922e-02
    x[2,5]    allocateEach[5]  1
    x[2,5]    findWorstP[1,2]  -1.0957268316277943e-01
    x[2,5]    findWorstP[2,1]  1.6310796768678978e-01
    x[2,5]    findWorstP[2,3]  1.6310796768678978e-01
    x[2,5]    findWorstP[2,4]  1.6310796768678978e-01
    x[2,5]    findWorstP[3,2]  -1.4791429458648173e-01
    x[2,5]    findWorstP[4,2]  -7.9144929380328286e-02
    x[2,6]    allocateEach[6]  1
    x[2,6]    findWorstP[1,2]  -1.4792085493598559e-01
    x[2,6]    findWorstP[2,1]  1.0887272483491435e-01
    x[2,6]    findWorstP[2,3]  1.0887272483491435e-01
    x[2,6]    findWorstP[2,4]  1.0887272483491435e-01
    x[2,6]    findWorstP[3,2]  -4.5078149259910980e-02
    x[2,6]    findWorstP[4,2]  -7.6557662128345416e-02
    x[2,7]    allocateEach[7]  1
    x[2,7]    findWorstP[1,2]  -1.5160905119639643e-02
    x[2,7]    findWorstP[2,1]  3.4961284483625517e-02
    x[2,7]    findWorstP[2,3]  3.4961284483625517e-02
    x[2,7]    findWorstP[2,4]  3.4961284483625517e-02
    x[2,7]    findWorstP[3,2]  -1.6745160956422731e-01
    x[2,7]    findWorstP[4,2]  -1.4282987657462781e-01
    x[2,8]    allocateEach[8]  1
    x[2,8]    findWorstP[1,2]  -1.3761204407696839e-01
    x[2,8]    findWorstP[2,1]  1.4329769047698857e-01
    x[2,8]    findWorstP[2,3]  1.4329769047698857e-01
    x[2,8]    findWorstP[2,4]  1.4329769047698857e-01
    x[2,8]    findWorstP[3,2]  -4.0083842252354833e-02
    x[2,8]    findWorstP[4,2]  -8.1095983373626848e-02
    x[2,9]    allocateEach[9]  1
    x[2,9]    findWorstP[1,2]  -5.8194900010580886e-03
    x[2,9]    findWorstP[2,1]  1.1755438608252607e-01
    x[2,9]    findWorstP[2,3]  1.1755438608252607e-01
    x[2,9]    findWorstP[2,4]  1.1755438608252607e-01
    x[2,9]    findWorstP[3,2]  -2.8309698788945240e-02
    x[2,9]    findWorstP[4,2]  -1.6390974254570134e-01
    x[2,10]   allocateEach[10]  1
    x[2,10]   findWorstP[1,2]  -1.3387850114122465e-01
    x[2,10]   findWorstP[2,1]  0.0443468642107733
    x[2,10]   findWorstP[2,3]  0.0443468642107733
    x[2,10]   findWorstP[2,4]  0.0443468642107733
    x[2,10]   findWorstP[3,2]  -6.8988717524065823e-02
    x[2,10]   findWorstP[4,2]  -1.1820842346354499e-01
    x[3,1]    allocateEach[1]  1
    x[3,1]    findWorstP[1,3]  -1.6808500990069076e-02
    x[3,1]    findWorstP[2,3]  -3.7877518184560720e-02
    x[3,1]    findWorstP[3,1]  8.8241382879619093e-02
    x[3,1]    findWorstP[3,2]  8.8241382879619093e-02
    x[3,1]    findWorstP[3,4]  8.8241382879619093e-02
    x[3,1]    findWorstP[4,3]  -1.8759808287738053e-01
    x[3,2]    allocateEach[2]  1
    x[3,2]    findWorstP[1,3]  -1.3250298532279275e-01
    x[3,2]    findWorstP[2,3]  -1.4542620587939531e-01
    x[3,2]    findWorstP[3,1]  4.7743504813166339e-02
    x[3,2]    findWorstP[3,2]  4.7743504813166339e-02
    x[3,2]    findWorstP[3,4]  4.7743504813166339e-02
    x[3,2]    findWorstP[4,3]  -4.7291852228867120e-03
    x[3,3]    allocateEach[3]  1
    x[3,3]    findWorstP[1,3]  -1.3551098145320978e-01
    x[3,3]    findWorstP[2,3]  -1.5142627291925048e-01
    x[3,3]    findWorstP[3,1]  2.4187454714832832e-01
    x[3,3]    findWorstP[3,2]  2.4187454714832832e-01
    x[3,3]    findWorstP[3,4]  2.4187454714832832e-01
    x[3,3]    findWorstP[4,3]  -7.9123722271705471e-02
    x[3,4]    allocateEach[4]  1
    x[3,4]    findWorstP[1,3]  -1.3498193690765903e-01
    x[3,4]    findWorstP[2,3]  -1.9609157644219489e-02
    x[3,4]    findWorstP[3,1]  7.2559776420660374e-02
    x[3,4]    findWorstP[3,2]  7.2559776420660374e-02
    x[3,4]    findWorstP[3,4]  7.2559776420660374e-02
    x[3,4]    findWorstP[4,3]  -2.4388174916231922e-02
    x[3,5]    allocateEach[5]  1
    x[3,5]    findWorstP[1,3]  -1.0957268316277943e-01
    x[3,5]    findWorstP[2,3]  -1.6310796768678978e-01
    x[3,5]    findWorstP[3,1]  1.4791429458648173e-01
    x[3,5]    findWorstP[3,2]  1.4791429458648173e-01
    x[3,5]    findWorstP[3,4]  1.4791429458648173e-01
    x[3,5]    findWorstP[4,3]  -7.9144929380328286e-02
    x[3,6]    allocateEach[6]  1
    x[3,6]    findWorstP[1,3]  -1.4792085493598559e-01
    x[3,6]    findWorstP[2,3]  -1.0887272483491435e-01
    x[3,6]    findWorstP[3,1]  4.5078149259910980e-02
    x[3,6]    findWorstP[3,2]  4.5078149259910980e-02
    x[3,6]    findWorstP[3,4]  4.5078149259910980e-02
    x[3,6]    findWorstP[4,3]  -7.6557662128345416e-02
    x[3,7]    allocateEach[7]  1
    x[3,7]    findWorstP[1,3]  -1.5160905119639643e-02
    x[3,7]    findWorstP[2,3]  -3.4961284483625517e-02
    x[3,7]    findWorstP[3,1]  1.6745160956422731e-01
    x[3,7]    findWorstP[3,2]  1.6745160956422731e-01
    x[3,7]    findWorstP[3,4]  1.6745160956422731e-01
    x[3,7]    findWorstP[4,3]  -1.4282987657462781e-01
    x[3,8]    allocateEach[8]  1
    x[3,8]    findWorstP[1,3]  -1.3761204407696839e-01
    x[3,8]    findWorstP[2,3]  -1.4329769047698857e-01
    x[3,8]    findWorstP[3,1]  4.0083842252354833e-02
    x[3,8]    findWorstP[3,2]  4.0083842252354833e-02
    x[3,8]    findWorstP[3,4]  4.0083842252354833e-02
    x[3,8]    findWorstP[4,3]  -8.1095983373626848e-02
    x[3,9]    allocateEach[9]  1
    x[3,9]    findWorstP[1,3]  -5.8194900010580886e-03
    x[3,9]    findWorstP[2,3]  -1.1755438608252607e-01
    x[3,9]    findWorstP[3,1]  2.8309698788945240e-02
    x[3,9]    findWorstP[3,2]  2.8309698788945240e-02
    x[3,9]    findWorstP[3,4]  2.8309698788945240e-02
    x[3,9]    findWorstP[4,3]  -1.6390974254570134e-01
    x[3,10]   allocateEach[10]  1
    x[3,10]   findWorstP[1,3]  -1.3387850114122465e-01
    x[3,10]   findWorstP[2,3]  -0.0443468642107733
    x[3,10]   findWorstP[3,1]  6.8988717524065823e-02
    x[3,10]   findWorstP[3,2]  6.8988717524065823e-02
    x[3,10]   findWorstP[3,4]  6.8988717524065823e-02
    x[3,10]   findWorstP[4,3]  -1.1820842346354499e-01
    x[4,1]    allocateEach[1]  1
    x[4,1]    findWorstP[1,4]  -1.6808500990069076e-02
    x[4,1]    findWorstP[2,4]  -3.7877518184560720e-02
    x[4,1]    findWorstP[3,4]  -8.8241382879619093e-02
    x[4,1]    findWorstP[4,1]  1.8759808287738053e-01
    x[4,1]    findWorstP[4,2]  1.8759808287738053e-01
    x[4,1]    findWorstP[4,3]  1.8759808287738053e-01
    x[4,2]    allocateEach[2]  1
    x[4,2]    findWorstP[1,4]  -1.3250298532279275e-01
    x[4,2]    findWorstP[2,4]  -1.4542620587939531e-01
    x[4,2]    findWorstP[3,4]  -4.7743504813166339e-02
    x[4,2]    findWorstP[4,1]  4.7291852228867120e-03
    x[4,2]    findWorstP[4,2]  4.7291852228867120e-03
    x[4,2]    findWorstP[4,3]  4.7291852228867120e-03
    x[4,3]    allocateEach[3]  1
    x[4,3]    findWorstP[1,4]  -1.3551098145320978e-01
    x[4,3]    findWorstP[2,4]  -1.5142627291925048e-01
    x[4,3]    findWorstP[3,4]  -2.4187454714832832e-01
    x[4,3]    findWorstP[4,1]  7.9123722271705471e-02
    x[4,3]    findWorstP[4,2]  7.9123722271705471e-02
    x[4,3]    findWorstP[4,3]  7.9123722271705471e-02
    x[4,4]    allocateEach[4]  1
    x[4,4]    findWorstP[1,4]  -1.3498193690765903e-01
    x[4,4]    findWorstP[2,4]  -1.9609157644219489e-02
    x[4,4]    findWorstP[3,4]  -7.2559776420660374e-02
    x[4,4]    findWorstP[4,1]  2.4388174916231922e-02
    x[4,4]    findWorstP[4,2]  2.4388174916231922e-02
    x[4,4]    findWorstP[4,3]  2.4388174916231922e-02
    x[4,5]    allocateEach[5]  1
    x[4,5]    findWorstP[1,4]  -1.0957268316277943e-01
    x[4,5]    findWorstP[2,4]  -1.6310796768678978e-01
    x[4,5]    findWorstP[3,4]  -1.4791429458648173e-01
    x[4,5]    findWorstP[4,1]  7.9144929380328286e-02
    x[4,5]    findWorstP[4,2]  7.9144929380328286e-02
    x[4,5]    findWorstP[4,3]  7.9144929380328286e-02
    x[4,6]    allocateEach[6]  1
    x[4,6]    findWorstP[1,4]  -1.4792085493598559e-01
    x[4,6]    findWorstP[2,4]  -1.0887272483491435e-01
    x[4,6]    findWorstP[3,4]  -4.5078149259910980e-02
    x[4,6]    findWorstP[4,1]  7.6557662128345416e-02
    x[4,6]    findWorstP[4,2]  7.6557662128345416e-02
    x[4,6]    findWorstP[4,3]  7.6557662128345416e-02
    x[4,7]    allocateEach[7]  1
    x[4,7]    findWorstP[1,4]  -1.5160905119639643e-02
    x[4,7]    findWorstP[2,4]  -3.4961284483625517e-02
    x[4,7]    findWorstP[3,4]  -1.6745160956422731e-01
    x[4,7]    findWorstP[4,1]  1.4282987657462781e-01
    x[4,7]    findWorstP[4,2]  1.4282987657462781e-01
    x[4,7]    findWorstP[4,3]  1.4282987657462781e-01
    x[4,8]    allocateEach[8]  1
    x[4,8]    findWorstP[1,4]  -1.3761204407696839e-01
    x[4,8]    findWorstP[2,4]  -1.4329769047698857e-01
    x[4,8]    findWorstP[3,4]  -4.0083842252354833e-02
    x[4,8]    findWorstP[4,1]  8.1095983373626848e-02
    x[4,8]    findWorstP[4,2]  8.1095983373626848e-02
    x[4,8]    findWorstP[4,3]  8.1095983373626848e-02
    x[4,9]    allocateEach[9]  1
    x[4,9]    findWorstP[1,4]  -5.8194900010580886e-03
    x[4,9]    findWorstP[2,4]  -1.1755438608252607e-01
    x[4,9]    findWorstP[3,4]  -2.8309698788945240e-02
    x[4,9]    findWorstP[4,1]  1.6390974254570134e-01
    x[4,9]    findWorstP[4,2]  1.6390974254570134e-01
    x[4,9]    findWorstP[4,3]  1.6390974254570134e-01
    x[4,10]   allocateEach[10]  1
    x[4,10]   findWorstP[1,4]  -1.3387850114122465e-01
    x[4,10]   findWorstP[2,4]  -0.0443468642107733
    x[4,10]   findWorstP[3,4]  -6.8988717524065823e-02
    x[4,10]   findWorstP[4,1]  1.1820842346354499e-01
    x[4,10]   findWorstP[4,2]  1.1820842346354499e-01
    x[4,10]   findWorstP[4,3]  1.1820842346354499e-01
    MARKER    'MARKER'                 'INTEND'
RHS
    RHS1      allocateEach[1]  1
    RHS1      allocateEach[2]  1
    RHS1      allocateEach[3]  1
    RHS1      allocateEach[4]  1
    RHS1      allocateEach[5]  1
    RHS1      allocateEach[6]  1
    RHS1      allocateEach[7]  1
    RHS1      allocateEach[8]  1
    RHS1      allocateEach[9]  1
    RHS1      allocateEach[10]  1
    RHS1      allocateAllCash  1
BOUNDS
 UP BND1      z         1
 MI BND1      cashProportion[1]
 UP BND1      cashProportion[1]  1
 MI BND1      cashProportion[2]
 UP BND1      cashProportion[2]  1
 MI BND1      cashProportion[3]
 UP BND1      cashProportion[3]  1
 MI BND1      cashProportion[4]
 UP BND1      cashProportion[4]  1
 BV BND1      x[1,1]  
 BV BND1      x[1,2]  
 BV BND1      x[1,3]  
 BV BND1      x[1,4]  
 BV BND1      x[1,5]  
 BV BND1      x[1,6]  
 BV BND1      x[1,7]  
 BV BND1      x[1,8]  
 BV BND1      x[1,9]  
 BV BND1      x[1,10] 
 BV BND1      x[2,1]  
 BV BND1      x[2,2]  
 BV BND1      x[2,3]  
 BV BND1      x[2,4]  
 BV BND1      x[2,5]  
 BV BND1      x[2,6]  
 BV BND1      x[2,7]  
 BV BND1      x[2,8]  
 BV BND1      x[2,9]  
 BV BND1      x[2,10] 
 BV BND1      x[3,1]  
 BV BND1      x[3,2]  
 BV BND1      x[3,3]  
 BV BND1      x[3,4]  
 BV BND1      x[3,5]  
 BV BND1      x[3,6]  
 BV BND1      x[3,7]  
 BV BND1      x[3,8]  
 BV BND1      x[3,9]  
 BV BND1      x[3,10] 
 BV BND1      x[4,1]  
 BV BND1      x[4,2]  
 BV BND1      x[4,3]  
 BV BND1      x[4,4]  
 BV BND1      x[4,5]  
 BV BND1      x[4,6]  
 BV BND1      x[4,7]  
 BV BND1      x[4,8]  
 BV BND1      x[4,9]  
 BV BND1      x[4,10] 
ENDATA
